Z3/okt2012.txt
(distinct_pairs (+ nx2 1) (+ ny2 2) nx1 ny1)
(distinct_pairs (+ nx2 1) (- ny2 2) nx1 ny1)
(distinct_pairs (- nx2 1) (+ ny2 2) nx1 ny1)
(distinct_pairs (- nx2 1) (- ny2 2) nx1 ny1)
(distinct_pairs (+ nx2 2) (+ ny2 1) nx1 ny1)
(distinct_pairs (+ nx2 2) (- ny2 1) nx1 ny1)
(distinct_pairs (- nx2 2) (+ ny2 1) nx1 ny1)
(distinct_pairs (- nx2 2) (- ny2 1) nx1 ny1)
(distinct_pairs nx2  ny2  nx1 ny1)
(distinct_pairs (+ nx3 1) (+ ny3 2) nx1 ny1)
(distinct_pairs (+ nx3 1) (- ny3 2) nx1 ny1)
(distinct_pairs (- nx3 1) (+ ny3 2) nx1 ny1)
(distinct_pairs (- nx3 1) (- ny3 2) nx1 ny1)
(distinct_pairs (+ nx3 2) (+ ny3 1) nx1 ny1)
(distinct_pairs (+ nx3 2) (- ny3 1) nx1 ny1)
(distinct_pairs (- nx3 2) (+ ny3 1) nx1 ny1)
(distinct_pairs (- nx3 2) (- ny3 1) nx1 ny1)
(distinct_pairs nx3  ny3  nx1 ny1)
(distinct_pairs (+ nx4 1) (+ ny4 2) nx1 ny1)
(distinct_pairs (+ nx4 1) (- ny4 2) nx1 ny1)
(distinct_pairs (- nx4 1) (+ ny4 2) nx1 ny1)
(distinct_pairs (- nx4 1) (- ny4 2) nx1 ny1)
(distinct_pairs (+ nx4 2) (+ ny4 1) nx1 ny1)
(distinct_pairs (+ nx4 2) (- ny4 1) nx1 ny1)
(distinct_pairs (- nx4 2) (+ ny4 1) nx1 ny1)
(distinct_pairs (- nx4 2) (- ny4 1) nx1 ny1)
(distinct_pairs nx4  ny4  nx1 ny1)
(distinct_pairs (+ nx3 1) (+ ny3 2) nx2 ny2)
(distinct_pairs (+ nx3 1) (- ny3 2) nx2 ny2)
(distinct_pairs (- nx3 1) (+ ny3 2) nx2 ny2)
(distinct_pairs (- nx3 1) (- ny3 2) nx2 ny2)
(distinct_pairs (+ nx3 2) (+ ny3 1) nx2 ny2)
(distinct_pairs (+ nx3 2) (- ny3 1) nx2 ny2)
(distinct_pairs (- nx3 2) (+ ny3 1) nx2 ny2)
(distinct_pairs (- nx3 2) (- ny3 1) nx2 ny2)
(distinct_pairs nx3  ny3  nx2 ny2)
(distinct_pairs (+ nx4 1) (+ ny4 2) nx2 ny2)
(distinct_pairs (+ nx4 1) (- ny4 2) nx2 ny2)
(distinct_pairs (- nx4 1) (+ ny4 2) nx2 ny2)
(distinct_pairs (- nx4 1) (- ny4 2) nx2 ny2)
(distinct_pairs (+ nx4 2) (+ ny4 1) nx2 ny2)
(distinct_pairs (+ nx4 2) (- ny4 1) nx2 ny2)
(distinct_pairs (- nx4 2) (+ ny4 1) nx2 ny2)
(distinct_pairs (- nx4 2) (- ny4 1) nx2 ny2)
(distinct_pairs nx4  ny4  nx2 ny2)
(distinct_pairs (+ nx4 1) (+ ny4 2) nx3 ny3)
(distinct_pairs (+ nx4 1) (- ny4 2) nx3 ny3)
(distinct_pairs (- nx4 1) (+ ny4 2) nx3 ny3)
(distinct_pairs (- nx4 1) (- ny4 2) nx3 ny3)
(distinct_pairs (+ nx4 2) (+ ny4 1) nx3 ny3)
(distinct_pairs (+ nx4 2) (- ny4 1) nx3 ny3)
(distinct_pairs (- nx4 2) (+ ny4 1) nx3 ny3)
(distinct_pairs (- nx4 2) (- ny4 1) nx3 ny3)
(distinct_pairs nx4  ny4  nx3 ny3)
(distinct_pairs (+ nx1 1) (+ ny1 2) qx1 qy1)
(distinct_pairs (+ nx1 1) (- ny1 2) qx1 qy1)
(distinct_pairs (- nx1 1) (+ ny1 2) qx1 qy1)
(distinct_pairs (- nx1 1) (- ny1 2) qx1 qy1)
(distinct_pairs (+ nx1 2) (+ ny1 1) qx1 qy1)
(distinct_pairs (+ nx1 2) (- ny1 1) qx1 qy1)
(distinct_pairs (- nx1 2) (+ ny1 1) qx1 qy1)
(distinct_pairs (- nx1 2) (- ny1 1) qx1 qy1)
(distinct_pairs (+ nx2 1) (+ ny2 2) qx1 qy1)
(distinct_pairs (+ nx2 1) (- ny2 2) qx1 qy1)
(distinct_pairs (- nx2 1) (+ ny2 2) qx1 qy1)
(distinct_pairs (- nx2 1) (- ny2 2) qx1 qy1)
(distinct_pairs (+ nx2 2) (+ ny2 1) qx1 qy1)
(distinct_pairs (+ nx2 2) (- ny2 1) qx1 qy1)
(distinct_pairs (- nx2 2) (+ ny2 1) qx1 qy1)
(distinct_pairs (- nx2 2) (- ny2 1) qx1 qy1)
(distinct_pairs (+ nx3 1) (+ ny3 2) qx1 qy1)
(distinct_pairs (+ nx3 1) (- ny3 2) qx1 qy1)
(distinct_pairs (- nx3 1) (+ ny3 2) qx1 qy1)
(distinct_pairs (- nx3 1) (- ny3 2) qx1 qy1)
(distinct_pairs (+ nx3 2) (+ ny3 1) qx1 qy1)
(distinct_pairs (+ nx3 2) (- ny3 1) qx1 qy1)
(distinct_pairs (- nx3 2) (+ ny3 1) qx1 qy1)
(distinct_pairs (- nx3 2) (- ny3 1) qx1 qy1)
(distinct_pairs (+ nx4 1) (+ ny4 2) qx1 qy1)
(distinct_pairs (+ nx4 1) (- ny4 2) qx1 qy1)
(distinct_pairs (- nx4 1) (+ ny4 2) qx1 qy1)
(distinct_pairs (- nx4 1) (- ny4 2) qx1 qy1)
(distinct_pairs (+ nx4 2) (+ ny4 1) qx1 qy1)
(distinct_pairs (+ nx4 2) (- ny4 1) qx1 qy1)
(distinct_pairs (- nx4 2) (+ ny4 1) qx1 qy1)
(distinct_pairs (- nx4 2) (- ny4 1) qx1 qy1)
(distinct_pairs (+ nx1 1) (+ ny1 2) qx2 qy2)
(distinct_pairs (+ nx1 1) (- ny1 2) qx2 qy2)
(distinct_pairs (- nx1 1) (+ ny1 2) qx2 qy2)
(distinct_pairs (- nx1 1) (- ny1 2) qx2 qy2)
(distinct_pairs (+ nx1 2) (+ ny1 1) qx2 qy2)
(distinct_pairs (+ nx1 2) (- ny1 1) qx2 qy2)
(distinct_pairs (- nx1 2) (+ ny1 1) qx2 qy2)
(distinct_pairs (- nx1 2) (- ny1 1) qx2 qy2)
(distinct_pairs (+ nx2 1) (+ ny2 2) qx2 qy2)
(distinct_pairs (+ nx2 1) (- ny2 2) qx2 qy2)
(distinct_pairs (- nx2 1) (+ ny2 2) qx2 qy2)
(distinct_pairs (- nx2 1) (- ny2 2) qx2 qy2)
(distinct_pairs (+ nx2 2) (+ ny2 1) qx2 qy2)
(distinct_pairs (+ nx2 2) (- ny2 1) qx2 qy2)
(distinct_pairs (- nx2 2) (+ ny2 1) qx2 qy2)
(distinct_pairs (- nx2 2) (- ny2 1) qx2 qy2)
(distinct_pairs (+ nx3 1) (+ ny3 2) qx2 qy2)
(distinct_pairs (+ nx3 1) (- ny3 2) qx2 qy2)
(distinct_pairs (- nx3 1) (+ ny3 2) qx2 qy2)
(distinct_pairs (- nx3 1) (- ny3 2) qx2 qy2)
(distinct_pairs (+ nx3 2) (+ ny3 1) qx2 qy2)
(distinct_pairs (+ nx3 2) (- ny3 1) qx2 qy2)
(distinct_pairs (- nx3 2) (+ ny3 1) qx2 qy2)
(distinct_pairs (- nx3 2) (- ny3 1) qx2 qy2)
(distinct_pairs (+ nx4 1) (+ ny4 2) qx2 qy2)
(distinct_pairs (+ nx4 1) (- ny4 2) qx2 qy2)
(distinct_pairs (- nx4 1) (+ ny4 2) qx2 qy2)
(distinct_pairs (- nx4 1) (- ny4 2) qx2 qy2)
(distinct_pairs (+ nx4 2) (+ ny4 1) qx2 qy2)
(distinct_pairs (+ nx4 2) (- ny4 1) qx2 qy2)
(distinct_pairs (- nx4 2) (+ ny4 1) qx2 qy2)
(distinct_pairs (- nx4 2) (- ny4 1) qx2 qy2)
(distinct_pairs (+ nx1 1) (+ ny1 2) qx3 qy3)
(distinct_pairs (+ nx1 1) (- ny1 2) qx3 qy3)
(distinct_pairs (- nx1 1) (+ ny1 2) qx3 qy3)
(distinct_pairs (- nx1 1) (- ny1 2) qx3 qy3)
(distinct_pairs (+ nx1 2) (+ ny1 1) qx3 qy3)
(distinct_pairs (+ nx1 2) (- ny1 1) qx3 qy3)
(distinct_pairs (- nx1 2) (+ ny1 1) qx3 qy3)
(distinct_pairs (- nx1 2) (- ny1 1) qx3 qy3)
(distinct_pairs (+ nx2 1) (+ ny2 2) qx3 qy3)
(distinct_pairs (+ nx2 1) (- ny2 2) qx3 qy3)
(distinct_pairs (- nx2 1) (+ ny2 2) qx3 qy3)
(distinct_pairs (- nx2 1) (- ny2 2) qx3 qy3)
(distinct_pairs (+ nx2 2) (+ ny2 1) qx3 qy3)
(distinct_pairs (+ nx2 2) (- ny2 1) qx3 qy3)
(distinct_pairs (- nx2 2) (+ ny2 1) qx3 qy3)
(distinct_pairs (- nx2 2) (- ny2 1) qx3 qy3)
(distinct_pairs (+ nx3 1) (+ ny3 2) qx3 qy3)
(distinct_pairs (+ nx3 1) (- ny3 2) qx3 qy3)
(distinct_pairs (- nx3 1) (+ ny3 2) qx3 qy3)
(distinct_pairs (- nx3 1) (- ny3 2) qx3 qy3)
(distinct_pairs (+ nx3 2) (+ ny3 1) qx3 qy3)
(distinct_pairs (+ nx3 2) (- ny3 1) qx3 qy3)
(distinct_pairs (- nx3 2) (+ ny3 1) qx3 qy3)
(distinct_pairs (- nx3 2) (- ny3 1) qx3 qy3)
(distinct_pairs (+ nx4 1) (+ ny4 2) qx3 qy3)
(distinct_pairs (+ nx4 1) (- ny4 2) qx3 qy3)
(distinct_pairs (- nx4 1) (+ ny4 2) qx3 qy3)
(distinct_pairs (- nx4 1) (- ny4 2) qx3 qy3)
(distinct_pairs (+ nx4 2) (+ ny4 1) qx3 qy3)
(distinct_pairs (+ nx4 2) (- ny4 1) qx3 qy3)
(distinct_pairs (- nx4 2) (+ ny4 1) qx3 qy3)
(distinct_pairs (- nx4 2) (- ny4 1) qx3 qy3)
(distinct_pairs (+ nx1 1) (+ ny1 2) qx4 qy4)
(distinct_pairs (+ nx1 1) (- ny1 2) qx4 qy4)
(distinct_pairs (- nx1 1) (+ ny1 2) qx4 qy4)
(distinct_pairs (- nx1 1) (- ny1 2) qx4 qy4)
(distinct_pairs (+ nx1 2) (+ ny1 1) qx4 qy4)
(distinct_pairs (+ nx1 2) (- ny1 1) qx4 qy4)
(distinct_pairs (- nx1 2) (+ ny1 1) qx4 qy4)
(distinct_pairs (- nx1 2) (- ny1 1) qx4 qy4)
(distinct_pairs (+ nx2 1) (+ ny2 2) qx4 qy4)
(distinct_pairs (+ nx2 1) (- ny2 2) qx4 qy4)
(distinct_pairs (- nx2 1) (+ ny2 2) qx4 qy4)
(distinct_pairs (- nx2 1) (- ny2 2) qx4 qy4)
(distinct_pairs (+ nx2 2) (+ ny2 1) qx4 qy4)
(distinct_pairs (+ nx2 2) (- ny2 1) qx4 qy4)
(distinct_pairs (- nx2 2) (+ ny2 1) qx4 qy4)
(distinct_pairs (- nx2 2) (- ny2 1) qx4 qy4)
(distinct_pairs (+ nx3 1) (+ ny3 2) qx4 qy4)
(distinct_pairs (+ nx3 1) (- ny3 2) qx4 qy4)
(distinct_pairs (- nx3 1) (+ ny3 2) qx4 qy4)
(distinct_pairs (- nx3 1) (- ny3 2) qx4 qy4)
(distinct_pairs (+ nx3 2) (+ ny3 1) qx4 qy4)
(distinct_pairs (+ nx3 2) (- ny3 1) qx4 qy4)
(distinct_pairs (- nx3 2) (+ ny3 1) qx4 qy4)
(distinct_pairs (- nx3 2) (- ny3 1) qx4 qy4)
(distinct_pairs (+ nx4 1) (+ ny4 2) qx4 qy4)
(distinct_pairs (+ nx4 1) (- ny4 2) qx4 qy4)
(distinct_pairs (- nx4 1) (+ ny4 2) qx4 qy4)
(distinct_pairs (- nx4 1) (- ny4 2) qx4 qy4)
(distinct_pairs (+ nx4 2) (+ ny4 1) qx4 qy4)
(distinct_pairs (+ nx4 2) (- ny4 1) qx4 qy4)
(distinct_pairs (- nx4 2) (+ ny4 1) qx4 qy4)
(distinct_pairs (- nx4 2) (- ny4 1) qx4 qy4)
